p wcnf 146 219 220 
1 -7 -117 0 
1 -109 7 0 
1 -55 -53 0 
1 -132 40 0 
1 -58 63 0 
1 133 -8 0 
1 -51 -105 0 
1 92 -49 0 
1 -62 135 0 
1 -21 -87 0 
1 -7 93 0 
1 -20 -52 0 
1 -90 25 0 
1 47 66 0 
1 71 -119 0 
1 -78 117 0 
1 43 109 0 
1 -119 10 0 
1 53 110 0 
1 -23 -121 0 
1 27 94 0 
1 107 -103 0 
1 -134 140 0 
1 127 -55 0 
1 -14 -7 0 
1 129 -66 0 
1 117 116 0 
1 -63 5 0 
1 -21 -1 0 
1 -19 -107 0 
1 -146 -76 0 
1 -130 -81 0 
1 10 4 0 
1 -111 16 0 
1 53 -36 0 
1 -72 -58 0 
1 -35 107 0 
1 70 -111 0 
1 29 -104 0 
1 122 -109 0 
1 -83 129 0 
1 119 26 0 
1 121 10 0 
1 105 43 0 
1 144 116 0 
1 -88 -113 0 
1 -107 14 0 
1 -67 53 0 
1 -57 127 0 
1 -97 29 0 
1 -107 22 0 
1 -24 118 0 
1 120 -32 0 
1 -23 103 0 
1 113 43 0 
1 -101 -136 0 
1 60 -125 0 
1 90 -111 0 
1 -17 -42 0 
1 -124 63 0 
1 -1 99 0 
1 -127 43 0 
1 30 16 0 
1 -9 -75 0 
1 -62 123 0 
1 -57 90 0 
1 -27 -103 0 
1 62 -141 0 
1 22 57 0 
1 11 -63 0 
1 -76 -49 0 
1 117 -100 0 
1 141 -95 0 
1 -56 -109 0 
1 83 52 0 
1 19 120 0 
1 -30 -28 0 
1 -5 73 0 
1 -119 -53 0 
1 -27 9 0 
1 -4 -146 0 
1 -146 -49 0 
1 93 117 0 
1 60 -71 0 
1 -50 -41 0 
1 35 53 0 
1 52 10 0 
1 -127 101 0 
1 66 -28 0 
1 -89 103 0 
1 69 -113 0 
1 17 21 0 
1 -48 -68 0 
1 -127 -109 0 
1 27 87 0 
1 -64 -10 0 
1 86 67 0 
1 -29 55 0 
1 -2 135 0 
1 -43 -132 0 
1 28 -122 0 
1 127 -104 0 
1 110 131 0 
1 -9 92 0 
1 -38 63 0 
1 55 29 0 
1 -68 -5 0 
1 125 126 0 
1 -84 31 0 
1 -144 84 0 
1 23 -73 0 
1 -102 -106 0 
1 6 23 0 
1 48 66 0 
1 -26 56 0 
1 -85 -61 0 
1 -103 139 0 
1 24 -92 0 
1 -119 -18 0 
1 61 -32 0 
1 -25 -58 0 
1 42 -135 0 
1 -54 92 0 
1 131 -99 0 
1 -71 6 0 
1 55 88 0 
1 1 133 0 
1 -60 44 0 
1 -131 78 0 
1 109 -41 0 
1 96 124 0 
1 9 96 0 
1 -124 12 0 
1 -115 55 0 
1 -90 109 0 
1 -24 142 0 
1 -112 106 0 
1 38 22 0 
1 -90 -40 0 
1 19 133 0 
1 -135 -102 0 
1 130 123 0 
1 144 12 0 
1 15 125 0 
1 -25 -30 0 
1 120 9 0 
1 -24 -69 0 
1 110 25 0 
1 132 145 0 
1 -52 -87 0 
1 51 -63 0 
1 -62 -10 0 
1 -39 -134 0 
1 -40 -75 0 
1 37 -132 0 
1 -75 50 0 
1 130 117 0 
1 146 24 0 
1 -6 83 0 
1 70 -24 0 
1 -48 134 0 
1 -95 -6 0 
1 -8 -88 0 
1 -5 141 0 
1 -128 -22 0 
1 98 133 0 
1 -69 -31 0 
1 44 139 0 
1 125 84 0 
1 36 143 0 
1 95 -86 0 
1 -111 103 0 
1 -46 44 0 
1 54 73 0 
1 65 -24 0 
1 -103 -17 0 
1 -45 23 0 
1 -107 -94 0 
1 29 97 0 
1 -21 1 0 
1 -66 -133 0 
1 16 141 0 
1 87 -79 0 
1 -145 -128 0 
1 125 -36 0 
1 -107 133 0 
1 -130 89 0 
1 -15 142 0 
1 -121 80 0 
1 -146 96 0 
1 -131 133 0 
1 -101 -24 0 
1 -103 -144 0 
1 80 131 0 
1 17 45 0 
1 106 7 0 
1 88 111 0 
1 58 -68 0 
1 -100 -69 0 
1 52 43 0 
1 12 -44 0 
1 -12 -142 0 
1 -24 -87 0 
1 21 107 0 
1 -92 78 0 
1 119 -51 0 
1 -103 128 0 
1 43 -134 0 
1 -73 -11 0 
1 91 -10 0 
1 -12 44 0 
1 107 15 0 
1 126 -1 0 
1 -146 43 0 
1 -17 63 0 
1 121 4 0 
1 8 68 0 
1 59 83 0 
1 102 75 0 
